%%%mzn-stat: initTime=0.021583049
%%%mzn-stat: objective=411
%%%mzn-stat: nodes=29087
%%%mzn-stat: restarts=6
%%%mzn-stat: peakDepth=628
%%%mzn-stat: solveTime=8.816576267
%%%mzn-stat: variables=1560
%%%mzn-stat: propagators=2408
%%%mzn-stat: failures=21716
%%%mzn-stat: propagations=6100666
%%%mzn-stat: nogoods=21716
%%%mzn-stat: AverageConflictSize=29.885061705654817
%%%mzn-stat: NumUnitNogoodsLearned=217
%%%mzn-stat: AverageLearnedNogoodLength=98.90458648001474
%%%mzn-stat: AverageBacktrackAmount=0
%%%mzn-stat: AverageLbd=17.601722232455334
%%%mzn-stat-end
maxleg = 411;
succ = array1d(1..50,[4, 41, 42, 21, 40, 22, 48, 20, 6, 5, 8, 34, 49, 23, 19, 31, 27, 9, 50, 39, 10, 26, 2, 7, 28, 24, 36, 16, 18, 43, 44, 17, 3, 45, 1, 29, 15, 47, 38, 46, 25, 32, 12, 13, 14, 30, 37, 35, 11, 33]);
% time elapsed: 10.88 s
----------
%%%mzn-stat: initTime=0.021583049
%%%mzn-stat: objective=410
%%%mzn-stat: nodes=44168
%%%mzn-stat: restarts=8
%%%mzn-stat: peakDepth=741
%%%mzn-stat: solveTime=12.865888843
%%%mzn-stat: variables=1560
%%%mzn-stat: propagators=2408
%%%mzn-stat: failures=32966
%%%mzn-stat: propagations=8909851
%%%mzn-stat: nogoods=32966
%%%mzn-stat: AverageConflictSize=29.14229812534126
%%%mzn-stat: NumUnitNogoodsLearned=217
%%%mzn-stat: AverageLearnedNogoodLength=92.9065097373051
%%%mzn-stat: AverageBacktrackAmount=0
%%%mzn-stat: AverageLbd=16.16192440696475
%%%mzn-stat-end
maxleg = 410;
succ = array1d(1..50,[4, 41, 42, 21, 40, 46, 35, 20, 6, 5, 8, 22, 49, 23, 19, 31, 27, 9, 50, 39, 10, 26, 2, 7, 28, 24, 36, 16, 18, 43, 44, 17, 3, 45, 1, 29, 15, 47, 38, 48, 25, 32, 12, 13, 14, 30, 37, 34, 11, 33]);
% time elapsed: 14.92 s
----------
%%%mzn-stat: initTime=0.021583049
%%%mzn-stat: objective=409
%%%mzn-stat: nodes=45749
%%%mzn-stat: restarts=9
%%%mzn-stat: peakDepth=755
%%%mzn-stat: solveTime=13.020699892
%%%mzn-stat: variables=1560
%%%mzn-stat: propagators=2408
%%%mzn-stat: failures=33543
%%%mzn-stat: propagations=9115371
%%%mzn-stat: nogoods=33543
%%%mzn-stat: AverageConflictSize=28.855767224160033
%%%mzn-stat: NumUnitNogoodsLearned=217
%%%mzn-stat: AverageLearnedNogoodLength=92.45505768714784
%%%mzn-stat: AverageBacktrackAmount=0
%%%mzn-stat: AverageLbd=16.179977938765166
%%%mzn-stat-end
maxleg = 409;
succ = array1d(1..50,[4, 41, 42, 21, 40, 46, 35, 20, 6, 5, 8, 22, 49, 23, 19, 31, 27, 9, 50, 39, 10, 26, 2, 7, 28, 24, 36, 16, 18, 43, 44, 17, 3, 45, 1, 29, 15, 47, 38, 48, 25, 32, 12, 13, 14, 30, 37, 34, 11, 33]);
% time elapsed: 15.08 s
----------
%%%mzn-stat: initTime=0.021583049
%%%mzn-stat: objective=408
%%%mzn-stat: nodes=47377
%%%mzn-stat: restarts=10
%%%mzn-stat: peakDepth=767
%%%mzn-stat: solveTime=13.281262696
%%%mzn-stat: variables=1560
%%%mzn-stat: propagators=2408
%%%mzn-stat: failures=34158
%%%mzn-stat: propagations=9274768
%%%mzn-stat: nogoods=34158
%%%mzn-stat: AverageConflictSize=28.833831020551553
%%%mzn-stat: NumUnitNogoodsLearned=217
%%%mzn-stat: AverageLearnedNogoodLength=92.44478599449616
%%%mzn-stat: AverageBacktrackAmount=0
%%%mzn-stat: AverageLbd=16.175654312313366
%%%mzn-stat-end
maxleg = 408;
succ = array1d(1..50,[4, 41, 42, 21, 40, 46, 35, 20, 6, 5, 8, 22, 49, 23, 19, 31, 27, 9, 50, 39, 10, 26, 2, 7, 28, 24, 36, 16, 18, 43, 44, 17, 3, 45, 1, 29, 15, 47, 38, 48, 25, 32, 12, 13, 14, 30, 37, 34, 11, 33]);
% time elapsed: 15.34 s
----------
%%%mzn-stat: initTime=0.021583049
%%%mzn-stat: objective=407
%%%mzn-stat: nodes=49437
%%%mzn-stat: restarts=11
%%%mzn-stat: peakDepth=767
%%%mzn-stat: solveTime=13.645682296
%%%mzn-stat: variables=1560
%%%mzn-stat: propagators=2408
%%%mzn-stat: failures=35144
%%%mzn-stat: propagations=9523652
%%%mzn-stat: nogoods=35144
%%%mzn-stat: AverageConflictSize=28.598452082859094
%%%mzn-stat: NumUnitNogoodsLearned=217
%%%mzn-stat: AverageLearnedNogoodLength=92.26792624630093
%%%mzn-stat: AverageBacktrackAmount=0
%%%mzn-stat: AverageLbd=16.121414750739813
%%%mzn-stat-end
maxleg = 407;
succ = array1d(1..50,[4, 41, 42, 21, 40, 46, 35, 20, 6, 5, 8, 22, 49, 23, 19, 31, 27, 9, 50, 39, 10, 26, 2, 7, 28, 24, 36, 16, 18, 43, 44, 17, 3, 45, 1, 29, 15, 47, 38, 48, 25, 32, 12, 13, 14, 30, 37, 34, 11, 33]);
% time elapsed: 15.72 s
----------
%%%mzn-stat: initTime=0.021583049
%%%mzn-stat: objective=405
%%%mzn-stat: nodes=50453
%%%mzn-stat: restarts=12
%%%mzn-stat: peakDepth=767
%%%mzn-stat: solveTime=13.689601913
%%%mzn-stat: variables=1560
%%%mzn-stat: propagators=2408
%%%mzn-stat: failures=35278
%%%mzn-stat: propagations=9585768
%%%mzn-stat: nogoods=35278
%%%mzn-stat: AverageConflictSize=28.51663926526447
%%%mzn-stat: NumUnitNogoodsLearned=217
%%%mzn-stat: AverageLearnedNogoodLength=92.10845286013947
%%%mzn-stat: AverageBacktrackAmount=0
%%%mzn-stat: AverageLbd=16.122115766199897
%%%mzn-stat-end
maxleg = 405;
succ = array1d(1..50,[4, 41, 42, 21, 40, 46, 35, 20, 6, 5, 8, 22, 49, 23, 19, 31, 27, 9, 50, 39, 10, 26, 2, 7, 28, 24, 36, 16, 18, 43, 44, 17, 3, 45, 1, 29, 15, 47, 38, 48, 25, 32, 12, 13, 14, 30, 37, 34, 11, 33]);
% time elapsed: 15.76 s
----------
%%%mzn-stat: initTime=0.021583049
%%%mzn-stat: objective=387
%%%mzn-stat: nodes=64098
%%%mzn-stat: restarts=15
%%%mzn-stat: peakDepth=767
%%%mzn-stat: solveTime=17.817938879
%%%mzn-stat: variables=1560
%%%mzn-stat: propagators=2408
%%%mzn-stat: failures=45453
%%%mzn-stat: propagations=12665993
%%%mzn-stat: nogoods=45453
%%%mzn-stat: AverageConflictSize=28.035817217785404
%%%mzn-stat: NumUnitNogoodsLearned=217
%%%mzn-stat: AverageLearnedNogoodLength=92.848612852837
%%%mzn-stat: AverageBacktrackAmount=0
%%%mzn-stat: AverageLbd=15.79622907178844
%%%mzn-stat-end
maxleg = 387;
succ = array1d(1..50,[4, 40, 42, 41, 21, 46, 35, 20, 48, 1, 8, 22, 49, 23, 19, 31, 27, 9, 50, 39, 10, 26, 6, 7, 28, 24, 36, 16, 18, 43, 44, 17, 3, 45, 2, 29, 15, 47, 38, 5, 25, 32, 12, 13, 14, 30, 37, 34, 11, 33]);
% time elapsed: 19.89 s
----------
%%%mzn-stat: initTime=0.021583049
%%%mzn-stat: objective=375
%%%mzn-stat: nodes=65666
%%%mzn-stat: restarts=17
%%%mzn-stat: peakDepth=767
%%%mzn-stat: solveTime=17.989503432
%%%mzn-stat: variables=1560
%%%mzn-stat: propagators=2408
%%%mzn-stat: failures=45882
%%%mzn-stat: propagations=12796145
%%%mzn-stat: nogoods=45882
%%%mzn-stat: AverageConflictSize=27.937993112767533
%%%mzn-stat: NumUnitNogoodsLearned=217
%%%mzn-stat: AverageLearnedNogoodLength=92.69170916699359
%%%mzn-stat: AverageBacktrackAmount=0
%%%mzn-stat: AverageLbd=15.794908678784708
%%%mzn-stat-end
maxleg = 375;
succ = array1d(1..50,[4, 34, 42, 41, 21, 46, 35, 20, 48, 1, 8, 22, 49, 23, 19, 31, 27, 9, 50, 39, 10, 24, 6, 7, 28, 43, 36, 16, 18, 40, 44, 17, 3, 45, 2, 29, 15, 47, 38, 5, 25, 32, 12, 13, 14, 30, 37, 26, 11, 33]);
% time elapsed: 20.07 s
----------
%%%mzn-stat: initTime=0.021583049
%%%mzn-stat: objective=366
%%%mzn-stat: nodes=69651
%%%mzn-stat: restarts=20
%%%mzn-stat: peakDepth=767
%%%mzn-stat: solveTime=18.398362805
%%%mzn-stat: variables=1560
%%%mzn-stat: propagators=2408
%%%mzn-stat: failures=47609
%%%mzn-stat: propagations=13279133
%%%mzn-stat: nogoods=47609
%%%mzn-stat: AverageConflictSize=27.39742485664475
%%%mzn-stat: NumUnitNogoodsLearned=217
%%%mzn-stat: AverageLearnedNogoodLength=91.45443088491672
%%%mzn-stat: AverageBacktrackAmount=0
%%%mzn-stat: AverageLbd=15.809237749165074
%%%mzn-stat-end
maxleg = 366;
succ = array1d(1..50,[4, 34, 42, 47, 21, 46, 35, 20, 48, 1, 8, 22, 49, 23, 19, 31, 27, 9, 50, 39, 10, 24, 6, 7, 28, 43, 36, 16, 18, 40, 44, 17, 3, 45, 2, 29, 41, 15, 38, 5, 25, 32, 12, 13, 14, 30, 37, 26, 11, 33]);
% time elapsed: 20.48 s
----------
%%%mzn-stat: initTime=0.021583049
%%%mzn-stat: objective=359
%%%mzn-stat: nodes=71661
%%%mzn-stat: restarts=21
%%%mzn-stat: peakDepth=781
%%%mzn-stat: solveTime=18.742384132
%%%mzn-stat: variables=1560
%%%mzn-stat: propagators=2408
%%%mzn-stat: failures=48576
%%%mzn-stat: propagations=13584061
%%%mzn-stat: nogoods=48576
%%%mzn-stat: AverageConflictSize=27.274188899868246
%%%mzn-stat: NumUnitNogoodsLearned=217
%%%mzn-stat: AverageLearnedNogoodLength=91.14109848484848
%%%mzn-stat: AverageBacktrackAmount=0
%%%mzn-stat: AverageLbd=15.777791501976285
%%%mzn-stat-end
maxleg = 359;
succ = array1d(1..50,[4, 34, 42, 47, 21, 46, 35, 20, 48, 1, 8, 22, 49, 23, 19, 31, 27, 9, 50, 39, 10, 24, 6, 7, 28, 43, 36, 16, 18, 40, 44, 17, 3, 45, 2, 29, 41, 15, 38, 5, 25, 32, 12, 13, 14, 30, 37, 26, 11, 33]);
% time elapsed: 20.83 s
----------
%%%mzn-stat: initTime=0.021583049
%%%mzn-stat: objective=357
%%%mzn-stat: nodes=77432
%%%mzn-stat: restarts=22
%%%mzn-stat: peakDepth=781
%%%mzn-stat: solveTime=20.349624595
%%%mzn-stat: variables=1560
%%%mzn-stat: propagators=2408
%%%mzn-stat: failures=52508
%%%mzn-stat: propagations=14553696
%%%mzn-stat: nogoods=52508
%%%mzn-stat: AverageConflictSize=27.016473680201113
%%%mzn-stat: NumUnitNogoodsLearned=217
%%%mzn-stat: AverageLearnedNogoodLength=91.10583149234402
%%%mzn-stat: AverageBacktrackAmount=0
%%%mzn-stat: AverageLbd=15.613887407633122
%%%mzn-stat-end
maxleg = 357;
succ = array1d(1..50,[4, 34, 42, 47, 21, 46, 35, 20, 48, 1, 8, 22, 49, 23, 19, 31, 27, 9, 50, 39, 10, 24, 6, 7, 28, 43, 36, 16, 18, 40, 44, 17, 3, 45, 2, 29, 41, 15, 38, 5, 25, 32, 12, 13, 14, 30, 37, 26, 11, 33]);
% time elapsed: 22.44 s
----------
%%%mzn-stat: initTime=0.021583049
%%%mzn-stat: objective=352
%%%mzn-stat: nodes=78380
%%%mzn-stat: restarts=23
%%%mzn-stat: peakDepth=781
%%%mzn-stat: solveTime=20.406300813
%%%mzn-stat: variables=1560
%%%mzn-stat: propagators=2408
%%%mzn-stat: failures=52603
%%%mzn-stat: propagations=14581507
%%%mzn-stat: nogoods=52603
%%%mzn-stat: AverageConflictSize=27.045947949736707
%%%mzn-stat: NumUnitNogoodsLearned=217
%%%mzn-stat: AverageLearnedNogoodLength=91.12254053951295
%%%mzn-stat: AverageBacktrackAmount=0
%%%mzn-stat: AverageLbd=15.617607360796912
%%%mzn-stat-end
maxleg = 352;
succ = array1d(1..50,[4, 34, 42, 47, 21, 46, 35, 20, 48, 1, 8, 22, 49, 23, 19, 31, 27, 9, 50, 39, 10, 24, 6, 7, 28, 43, 36, 16, 18, 40, 44, 17, 3, 45, 2, 29, 41, 15, 38, 5, 25, 32, 12, 13, 14, 30, 37, 26, 11, 33]);
% time elapsed: 22.50 s
----------
%%%mzn-stat: initTime=0.021583049
%%%mzn-stat: objective=351
%%%mzn-stat: nodes=80189
%%%mzn-stat: restarts=24
%%%mzn-stat: peakDepth=781
%%%mzn-stat: solveTime=20.591471256
%%%mzn-stat: variables=1560
%%%mzn-stat: propagators=2408
%%%mzn-stat: failures=53336
%%%mzn-stat: propagations=14829774
%%%mzn-stat: nogoods=53336
%%%mzn-stat: AverageConflictSize=26.800434978251086
%%%mzn-stat: NumUnitNogoodsLearned=217
%%%mzn-stat: AverageLearnedNogoodLength=90.64127418629069
%%%mzn-stat: AverageBacktrackAmount=0
%%%mzn-stat: AverageLbd=15.59310784460777
%%%mzn-stat-end
maxleg = 351;
succ = array1d(1..50,[4, 34, 42, 47, 21, 46, 35, 20, 48, 1, 8, 22, 49, 26, 19, 31, 27, 9, 50, 39, 10, 23, 6, 7, 28, 43, 36, 16, 18, 40, 44, 17, 3, 45, 2, 29, 41, 15, 38, 5, 25, 32, 12, 13, 14, 30, 37, 24, 11, 33]);
% time elapsed: 22.69 s
----------
%%%mzn-stat: initTime=0.021583049
%%%mzn-stat: objective=350
%%%mzn-stat: nodes=82759
%%%mzn-stat: restarts=25
%%%mzn-stat: peakDepth=781
%%%mzn-stat: solveTime=21.073256508
%%%mzn-stat: variables=1560
%%%mzn-stat: propagators=2408
%%%mzn-stat: failures=54734
%%%mzn-stat: propagations=15200467
%%%mzn-stat: nogoods=54734
%%%mzn-stat: AverageConflictSize=26.935360105236235
%%%mzn-stat: NumUnitNogoodsLearned=217
%%%mzn-stat: AverageLearnedNogoodLength=90.51611429824241
%%%mzn-stat: AverageBacktrackAmount=0
%%%mzn-stat: AverageLbd=15.553878759089415
%%%mzn-stat-end
maxleg = 350;
succ = array1d(1..50,[4, 34, 42, 47, 21, 46, 35, 20, 48, 1, 8, 22, 49, 26, 19, 31, 27, 9, 50, 39, 10, 23, 6, 7, 28, 43, 36, 16, 18, 40, 44, 17, 3, 45, 2, 29, 41, 15, 38, 5, 25, 32, 12, 13, 14, 30, 37, 24, 11, 33]);
% time elapsed: 23.17 s
----------
%%%mzn-stat: initTime=0.021583049
%%%mzn-stat: objective=349
%%%mzn-stat: nodes=88264
%%%mzn-stat: restarts=27
%%%mzn-stat: peakDepth=781
%%%mzn-stat: solveTime=22.166260919
%%%mzn-stat: variables=1560
%%%mzn-stat: propagators=2408
%%%mzn-stat: failures=58334
%%%mzn-stat: propagations=16184139
%%%mzn-stat: nogoods=58334
%%%mzn-stat: AverageConflictSize=26.6199986285871
%%%mzn-stat: NumUnitNogoodsLearned=217
%%%mzn-stat: AverageLearnedNogoodLength=90.13378132821339
%%%mzn-stat: AverageBacktrackAmount=0
%%%mzn-stat: AverageLbd=15.393818356361642
%%%mzn-stat-end
maxleg = 349;
succ = array1d(1..50,[4, 34, 42, 37, 21, 46, 35, 20, 48, 1, 8, 22, 49, 26, 47, 31, 27, 9, 50, 39, 10, 23, 6, 7, 28, 43, 36, 16, 18, 40, 44, 17, 3, 45, 2, 29, 41, 15, 38, 5, 25, 32, 12, 13, 14, 30, 19, 24, 11, 33]);
% time elapsed: 24.27 s
----------
%%%mzn-stat: initTime=0.021583049
%%%mzn-stat: objective=348
%%%mzn-stat: nodes=89378
%%%mzn-stat: restarts=28
%%%mzn-stat: peakDepth=781
%%%mzn-stat: solveTime=22.242834941
%%%mzn-stat: variables=1560
%%%mzn-stat: propagators=2408
%%%mzn-stat: failures=58545
%%%mzn-stat: propagations=16264379
%%%mzn-stat: nogoods=58545
%%%mzn-stat: AverageConflictSize=26.556734136134597
%%%mzn-stat: NumUnitNogoodsLearned=217
%%%mzn-stat: AverageLearnedNogoodLength=90.05387308907677
%%%mzn-stat: AverageBacktrackAmount=0
%%%mzn-stat: AverageLbd=15.39417542061662
%%%mzn-stat-end
maxleg = 348;
succ = array1d(1..50,[4, 34, 42, 37, 21, 46, 35, 20, 48, 1, 8, 22, 49, 26, 47, 31, 27, 9, 50, 39, 10, 23, 6, 7, 28, 43, 36, 16, 18, 40, 44, 17, 3, 45, 2, 29, 41, 15, 38, 5, 25, 32, 12, 13, 14, 30, 19, 24, 11, 33]);
% time elapsed: 24.35 s
----------
%%%mzn-stat: initTime=0.021583049
%%%mzn-stat: objective=347
%%%mzn-stat: nodes=90414
%%%mzn-stat: restarts=29
%%%mzn-stat: peakDepth=781
%%%mzn-stat: solveTime=22.329320537
%%%mzn-stat: variables=1560
%%%mzn-stat: propagators=2408
%%%mzn-stat: failures=58749
%%%mzn-stat: propagations=16320646
%%%mzn-stat: nogoods=58749
%%%mzn-stat: AverageConflictSize=26.54821358661424
%%%mzn-stat: NumUnitNogoodsLearned=217
%%%mzn-stat: AverageLearnedNogoodLength=90.03429845614393
%%%mzn-stat: AverageBacktrackAmount=0
%%%mzn-stat: AverageLbd=15.394985446560792
%%%mzn-stat-end
maxleg = 347;
succ = array1d(1..50,[4, 34, 42, 37, 21, 46, 35, 20, 48, 1, 8, 22, 49, 26, 47, 31, 27, 9, 50, 39, 10, 23, 6, 7, 28, 43, 36, 16, 18, 40, 44, 17, 3, 45, 2, 29, 41, 15, 38, 5, 25, 32, 12, 13, 14, 30, 19, 24, 11, 33]);
% time elapsed: 24.44 s
----------
%%%mzn-stat: initTime=0.021583049
%%%mzn-stat: objective=346
%%%mzn-stat: nodes=91562
%%%mzn-stat: restarts=30
%%%mzn-stat: peakDepth=781
%%%mzn-stat: solveTime=22.438527003
%%%mzn-stat: variables=1560
%%%mzn-stat: propagators=2408
%%%mzn-stat: failures=59070
%%%mzn-stat: propagations=16436392
%%%mzn-stat: nogoods=59070
%%%mzn-stat: AverageConflictSize=26.488522092432707
%%%mzn-stat: NumUnitNogoodsLearned=217
%%%mzn-stat: AverageLearnedNogoodLength=90.0123243609277
%%%mzn-stat: AverageBacktrackAmount=0
%%%mzn-stat: AverageLbd=15.40159133231759
%%%mzn-stat-end
maxleg = 346;
succ = array1d(1..50,[4, 34, 42, 37, 21, 46, 35, 20, 48, 1, 8, 22, 49, 26, 47, 31, 27, 9, 50, 39, 10, 23, 6, 7, 28, 43, 36, 16, 18, 40, 44, 17, 3, 45, 2, 29, 41, 15, 38, 5, 25, 32, 12, 13, 14, 30, 19, 24, 11, 33]);
% time elapsed: 24.55 s
----------
%%%mzn-stat: initTime=0.021583049
%%%mzn-stat: objective=345
%%%mzn-stat: nodes=92464
%%%mzn-stat: restarts=31
%%%mzn-stat: peakDepth=781
%%%mzn-stat: solveTime=22.48773604
%%%mzn-stat: variables=1560
%%%mzn-stat: propagators=2408
%%%mzn-stat: failures=59190
%%%mzn-stat: propagations=16486664
%%%mzn-stat: nogoods=59190
%%%mzn-stat: AverageConflictSize=26.460702821422537
%%%mzn-stat: NumUnitNogoodsLearned=217
%%%mzn-stat: AverageLearnedNogoodLength=89.97126203750634
%%%mzn-stat: AverageBacktrackAmount=0
%%%mzn-stat: AverageLbd=15.405879371515459
%%%mzn-stat-end
maxleg = 345;
succ = array1d(1..50,[4, 34, 42, 37, 21, 46, 35, 20, 48, 1, 8, 22, 49, 26, 47, 31, 27, 9, 50, 39, 10, 23, 6, 7, 28, 43, 36, 16, 18, 40, 44, 17, 3, 45, 2, 29, 41, 15, 38, 5, 25, 32, 12, 13, 14, 30, 19, 24, 11, 33]);
% time elapsed: 24.61 s
----------
%%%mzn-stat: initTime=0.021583049
%%%mzn-stat: objective=344
%%%mzn-stat: nodes=93216
%%%mzn-stat: restarts=32
%%%mzn-stat: peakDepth=781
%%%mzn-stat: solveTime=22.514223088
%%%mzn-stat: variables=1560
%%%mzn-stat: propagators=2408
%%%mzn-stat: failures=59246
%%%mzn-stat: propagations=16510360
%%%mzn-stat: nogoods=59246
%%%mzn-stat: AverageConflictSize=26.44497518819836
%%%mzn-stat: NumUnitNogoodsLearned=217
%%%mzn-stat: AverageLearnedNogoodLength=89.95587887789893
%%%mzn-stat: AverageBacktrackAmount=0
%%%mzn-stat: AverageLbd=15.409394727070183
%%%mzn-stat-end
maxleg = 344;
succ = array1d(1..50,[4, 34, 42, 37, 21, 46, 35, 20, 48, 1, 8, 22, 49, 26, 47, 31, 27, 9, 50, 39, 10, 23, 6, 7, 28, 43, 36, 16, 18, 40, 44, 17, 3, 45, 2, 29, 41, 15, 38, 5, 25, 32, 12, 13, 14, 30, 19, 24, 11, 33]);
% time elapsed: 24.64 s
----------
%%%mzn-stat: initTime=0.021583049
%%%mzn-stat: objective=343
%%%mzn-stat: nodes=94166
%%%mzn-stat: restarts=33
%%%mzn-stat: peakDepth=781
%%%mzn-stat: solveTime=22.59149685
%%%mzn-stat: variables=1560
%%%mzn-stat: propagators=2408
%%%mzn-stat: failures=59413
%%%mzn-stat: propagations=16573709
%%%mzn-stat: nogoods=59413
%%%mzn-stat: AverageConflictSize=26.42263477690068
%%%mzn-stat: NumUnitNogoodsLearned=217
%%%mzn-stat: AverageLearnedNogoodLength=89.9396596704425
%%%mzn-stat: AverageBacktrackAmount=0
%%%mzn-stat: AverageLbd=15.41177856698029
%%%mzn-stat-end
maxleg = 343;
succ = array1d(1..50,[4, 34, 42, 37, 21, 46, 35, 20, 48, 1, 8, 22, 49, 26, 47, 31, 27, 9, 50, 39, 10, 23, 6, 7, 28, 43, 36, 16, 18, 40, 44, 17, 3, 45, 2, 29, 41, 15, 38, 5, 25, 32, 12, 13, 14, 30, 19, 24, 11, 33]);
% time elapsed: 24.72 s
----------
%%%mzn-stat: initTime=0.021583049
%%%mzn-stat: objective=342
%%%mzn-stat: nodes=95898
%%%mzn-stat: restarts=34
%%%mzn-stat: peakDepth=781
%%%mzn-stat: solveTime=22.784696212
%%%mzn-stat: variables=1560
%%%mzn-stat: propagators=2408
%%%mzn-stat: failures=60184
%%%mzn-stat: propagations=16787596
%%%mzn-stat: nogoods=60184
%%%mzn-stat: AverageConflictSize=26.253622225176127
%%%mzn-stat: NumUnitNogoodsLearned=217
%%%mzn-stat: AverageLearnedNogoodLength=89.56024857104879
%%%mzn-stat: AverageBacktrackAmount=0
%%%mzn-stat: AverageLbd=15.405955071115246
%%%mzn-stat-end
maxleg = 342;
succ = array1d(1..50,[4, 34, 42, 37, 21, 46, 35, 20, 48, 1, 8, 22, 49, 26, 47, 31, 27, 9, 50, 39, 10, 23, 6, 7, 28, 43, 36, 16, 18, 40, 44, 17, 3, 45, 2, 29, 41, 15, 38, 5, 25, 32, 12, 13, 14, 30, 19, 24, 11, 33]);
% time elapsed: 24.91 s
----------
%%%mzn-stat: initTime=0.021583049
%%%mzn-stat: objective=341
%%%mzn-stat: nodes=100103
%%%mzn-stat: restarts=35
%%%mzn-stat: peakDepth=781
%%%mzn-stat: solveTime=23.774177214
%%%mzn-stat: variables=1560
%%%mzn-stat: propagators=2408
%%%mzn-stat: failures=62979
%%%mzn-stat: propagations=17541895
%%%mzn-stat: nogoods=62979
%%%mzn-stat: AverageConflictSize=26.559059368996014
%%%mzn-stat: NumUnitNogoodsLearned=217
%%%mzn-stat: AverageLearnedNogoodLength=89.3004175995173
%%%mzn-stat: AverageBacktrackAmount=0
%%%mzn-stat: AverageLbd=15.314374632814113
%%%mzn-stat-end
maxleg = 341;
succ = array1d(1..50,[4, 34, 42, 37, 21, 46, 35, 20, 48, 1, 8, 22, 49, 26, 47, 31, 27, 9, 50, 39, 10, 23, 6, 7, 28, 43, 36, 16, 18, 40, 44, 17, 3, 45, 2, 29, 41, 15, 38, 5, 25, 32, 12, 13, 14, 30, 19, 24, 11, 33]);
% time elapsed: 25.91 s
----------
%%%mzn-stat: initTime=0.021583049
%%%mzn-stat: objective=340
%%%mzn-stat: nodes=111031
%%%mzn-stat: restarts=36
%%%mzn-stat: peakDepth=781
%%%mzn-stat: solveTime=26.800756555
%%%mzn-stat: variables=1560
%%%mzn-stat: propagators=2408
%%%mzn-stat: failures=70589
%%%mzn-stat: propagations=19192022
%%%mzn-stat: nogoods=70589
%%%mzn-stat: AverageConflictSize=27.278910311804957
%%%mzn-stat: NumUnitNogoodsLearned=217
%%%mzn-stat: AverageLearnedNogoodLength=90.36548187394636
%%%mzn-stat: AverageBacktrackAmount=0
%%%mzn-stat: AverageLbd=15.073949198883678
%%%mzn-stat-end
maxleg = 340;
succ = array1d(1..50,[4, 34, 42, 37, 21, 46, 35, 20, 48, 1, 8, 22, 49, 26, 47, 31, 27, 9, 50, 39, 10, 23, 6, 7, 28, 43, 36, 16, 18, 40, 44, 17, 3, 45, 2, 29, 41, 15, 38, 5, 25, 32, 12, 13, 14, 30, 19, 24, 11, 33]);
% time elapsed: 28.94 s
----------
%%%mzn-stat: initTime=0.021583049
%%%mzn-stat: objective=339
%%%mzn-stat: nodes=112269
%%%mzn-stat: restarts=37
%%%mzn-stat: peakDepth=781
%%%mzn-stat: solveTime=26.949358122
%%%mzn-stat: variables=1560
%%%mzn-stat: propagators=2408
%%%mzn-stat: failures=70958
%%%mzn-stat: propagations=19287467
%%%mzn-stat: nogoods=70958
%%%mzn-stat: AverageConflictSize=27.263493897798696
%%%mzn-stat: NumUnitNogoodsLearned=217
%%%mzn-stat: AverageLearnedNogoodLength=90.30957749654725
%%%mzn-stat: AverageBacktrackAmount=0
%%%mzn-stat: AverageLbd=15.073832407903266
%%%mzn-stat-end
maxleg = 339;
succ = array1d(1..50,[4, 34, 42, 37, 21, 46, 35, 20, 48, 1, 8, 22, 49, 26, 47, 31, 27, 9, 50, 39, 10, 23, 6, 7, 28, 43, 36, 16, 18, 40, 44, 17, 3, 45, 2, 29, 41, 15, 38, 5, 25, 32, 12, 13, 14, 30, 19, 24, 11, 33]);
% time elapsed: 29.09 s
----------
%%%mzn-stat: initTime=0.021583049
%%%mzn-stat: objective=338
%%%mzn-stat: nodes=116197
%%%mzn-stat: restarts=38
%%%mzn-stat: peakDepth=781
%%%mzn-stat: solveTime=27.635914715
%%%mzn-stat: variables=1560
%%%mzn-stat: propagators=2408
%%%mzn-stat: failures=73241
%%%mzn-stat: propagations=19919579
%%%mzn-stat: nogoods=73241
%%%mzn-stat: AverageConflictSize=26.984093608771044
%%%mzn-stat: NumUnitNogoodsLearned=217
%%%mzn-stat: AverageLearnedNogoodLength=89.8057645307956
%%%mzn-stat: AverageBacktrackAmount=0
%%%mzn-stat: AverageLbd=15.024330634480688
%%%mzn-stat-end
maxleg = 338;
succ = array1d(1..50,[4, 34, 42, 37, 21, 46, 35, 20, 48, 1, 8, 22, 49, 26, 47, 31, 27, 9, 50, 39, 10, 23, 6, 7, 28, 43, 36, 16, 18, 40, 44, 17, 3, 45, 2, 29, 41, 15, 38, 5, 25, 32, 12, 13, 14, 30, 19, 24, 11, 33]);
% time elapsed: 29.78 s
----------
%%%mzn-stat: initTime=0.021583049
%%%mzn-stat: objective=337
%%%mzn-stat: nodes=119504
%%%mzn-stat: restarts=39
%%%mzn-stat: peakDepth=781
%%%mzn-stat: solveTime=28.312874931
%%%mzn-stat: variables=1560
%%%mzn-stat: propagators=2408
%%%mzn-stat: failures=75332
%%%mzn-stat: propagations=20544939
%%%mzn-stat: nogoods=75332
%%%mzn-stat: AverageConflictSize=26.901993840598948
%%%mzn-stat: NumUnitNogoodsLearned=217
%%%mzn-stat: AverageLearnedNogoodLength=89.34207242606064
%%%mzn-stat: AverageBacktrackAmount=0
%%%mzn-stat: AverageLbd=15.010606382413847
%%%mzn-stat-end
maxleg = 337;
succ = array1d(1..50,[4, 34, 42, 37, 21, 46, 35, 20, 48, 1, 8, 22, 49, 26, 47, 31, 27, 9, 50, 39, 10, 23, 6, 7, 28, 43, 36, 16, 18, 40, 44, 17, 3, 45, 2, 29, 41, 15, 38, 5, 25, 32, 12, 13, 14, 30, 19, 24, 11, 33]);
% time elapsed: 30.46 s
----------
%%%mzn-stat: initTime=0.021583049
%%%mzn-stat: objective=335
%%%mzn-stat: nodes=120381
%%%mzn-stat: restarts=40
%%%mzn-stat: peakDepth=781
%%%mzn-stat: solveTime=28.360898951
%%%mzn-stat: variables=1560
%%%mzn-stat: propagators=2408
%%%mzn-stat: failures=75461
%%%mzn-stat: propagations=20590322
%%%mzn-stat: nogoods=75461
%%%mzn-stat: AverageConflictSize=26.888339672148525
%%%mzn-stat: NumUnitNogoodsLearned=217
%%%mzn-stat: AverageLearnedNogoodLength=89.32244470653715
%%%mzn-stat: AverageBacktrackAmount=0
%%%mzn-stat: AverageLbd=15.012204980055923
%%%mzn-stat-end
maxleg = 335;
succ = array1d(1..50,[4, 34, 42, 37, 21, 46, 35, 20, 48, 1, 8, 22, 49, 26, 47, 31, 27, 9, 50, 39, 10, 23, 6, 7, 28, 43, 36, 16, 18, 40, 44, 17, 3, 45, 2, 29, 41, 15, 38, 5, 25, 32, 12, 13, 14, 30, 19, 24, 11, 33]);
% time elapsed: 30.51 s
----------
%%%mzn-stat: initTime=0.021583049
%%%mzn-stat: objective=333
%%%mzn-stat: nodes=121823
%%%mzn-stat: restarts=41
%%%mzn-stat: peakDepth=781
%%%mzn-stat: solveTime=28.584326181
%%%mzn-stat: variables=1560
%%%mzn-stat: propagators=2408
%%%mzn-stat: failures=76070
%%%mzn-stat: propagations=20788354
%%%mzn-stat: nogoods=76070
%%%mzn-stat: AverageConflictSize=26.905481793085315
%%%mzn-stat: NumUnitNogoodsLearned=217
%%%mzn-stat: AverageLearnedNogoodLength=89.24865255685553
%%%mzn-stat: AverageBacktrackAmount=0
%%%mzn-stat: AverageLbd=15.012054686472986
%%%mzn-stat-end
maxleg = 333;
succ = array1d(1..50,[4, 34, 42, 37, 21, 46, 35, 20, 48, 1, 8, 22, 49, 26, 47, 31, 27, 9, 50, 39, 10, 23, 6, 7, 28, 43, 36, 16, 18, 40, 44, 17, 3, 45, 2, 29, 41, 15, 38, 5, 25, 32, 12, 13, 14, 30, 19, 24, 11, 33]);
% time elapsed: 30.74 s
----------
%%%mzn-stat: initTime=0.021583049
%%%mzn-stat: objective=329
%%%mzn-stat: nodes=122794
%%%mzn-stat: restarts=42
%%%mzn-stat: peakDepth=781
%%%mzn-stat: solveTime=28.636194723
%%%mzn-stat: variables=1560
%%%mzn-stat: propagators=2408
%%%mzn-stat: failures=76227
%%%mzn-stat: propagations=20835079
%%%mzn-stat: nogoods=76227
%%%mzn-stat: AverageConflictSize=26.886588741522033
%%%mzn-stat: NumUnitNogoodsLearned=217
%%%mzn-stat: AverageLearnedNogoodLength=89.18410799323074
%%%mzn-stat: AverageBacktrackAmount=0
%%%mzn-stat: AverageLbd=15.01419444553767
%%%mzn-stat-end
maxleg = 329;
succ = array1d(1..50,[4, 34, 42, 37, 21, 46, 35, 20, 48, 1, 8, 22, 49, 26, 47, 31, 27, 9, 50, 39, 10, 23, 6, 7, 28, 43, 36, 16, 18, 40, 44, 17, 3, 45, 2, 29, 41, 15, 38, 5, 25, 32, 12, 13, 14, 30, 19, 24, 11, 33]);
% time elapsed: 30.80 s
----------
%%%mzn-stat: initTime=0.021583049
%%%mzn-stat: objective=325
%%%mzn-stat: nodes=124339
%%%mzn-stat: restarts=43
%%%mzn-stat: peakDepth=781
%%%mzn-stat: solveTime=28.768565179
%%%mzn-stat: variables=1560
%%%mzn-stat: propagators=2408
%%%mzn-stat: failures=76682
%%%mzn-stat: propagations=20982710
%%%mzn-stat: nogoods=76682
%%%mzn-stat: AverageConflictSize=26.806629978352156
%%%mzn-stat: NumUnitNogoodsLearned=217
%%%mzn-stat: AverageLearnedNogoodLength=89.05211131686706
%%%mzn-stat: AverageBacktrackAmount=0
%%%mzn-stat: AverageLbd=15.01143684306617
%%%mzn-stat-end
maxleg = 325;
succ = array1d(1..50,[4, 34, 42, 37, 21, 46, 35, 20, 48, 1, 8, 22, 49, 26, 47, 31, 27, 9, 50, 39, 10, 23, 6, 7, 28, 43, 36, 16, 18, 40, 44, 17, 3, 45, 2, 29, 41, 15, 38, 5, 25, 32, 12, 13, 14, 30, 19, 24, 11, 33]);
% time elapsed: 30.93 s
----------
%%%mzn-stat: initTime=0.021583049
%%%mzn-stat: objective=321
%%%mzn-stat: nodes=131822
%%%mzn-stat: restarts=44
%%%mzn-stat: peakDepth=781
%%%mzn-stat: solveTime=30.983167006
%%%mzn-stat: variables=1560
%%%mzn-stat: propagators=2408
%%%mzn-stat: failures=82219
%%%mzn-stat: propagations=22776490
%%%mzn-stat: nogoods=82219
%%%mzn-stat: AverageConflictSize=26.59053260195332
%%%mzn-stat: NumUnitNogoodsLearned=217
%%%mzn-stat: AverageLearnedNogoodLength=88.42197059073936
%%%mzn-stat: AverageBacktrackAmount=0
%%%mzn-stat: AverageLbd=14.942215303032146
%%%mzn-stat-end
maxleg = 321;
succ = array1d(1..50,[4, 34, 42, 37, 21, 46, 35, 20, 48, 1, 8, 22, 49, 26, 47, 31, 27, 9, 50, 39, 10, 23, 6, 7, 28, 43, 36, 16, 18, 40, 44, 17, 3, 45, 2, 29, 41, 15, 38, 5, 25, 32, 12, 13, 14, 30, 19, 24, 11, 33]);
% time elapsed: 33.15 s
----------
%%%mzn-stat: initTime=0.021583049
%%%mzn-stat: objective=319
%%%mzn-stat: nodes=135333
%%%mzn-stat: restarts=45
%%%mzn-stat: peakDepth=781
%%%mzn-stat: solveTime=31.478401601
%%%mzn-stat: variables=1560
%%%mzn-stat: propagators=2408
%%%mzn-stat: failures=84255
%%%mzn-stat: propagations=23260431
%%%mzn-stat: nogoods=84255
%%%mzn-stat: AverageConflictSize=26.333190908551423
%%%mzn-stat: NumUnitNogoodsLearned=217
%%%mzn-stat: AverageLearnedNogoodLength=87.60033232449113
%%%mzn-stat: AverageBacktrackAmount=0
%%%mzn-stat: AverageLbd=14.924586077977569
%%%mzn-stat-end
maxleg = 319;
succ = array1d(1..50,[4, 34, 42, 37, 21, 46, 35, 20, 48, 1, 8, 22, 49, 26, 47, 31, 27, 9, 50, 39, 10, 23, 6, 7, 28, 43, 36, 16, 18, 40, 44, 17, 3, 45, 2, 29, 41, 15, 38, 5, 25, 32, 12, 13, 14, 30, 19, 24, 11, 33]);
% time elapsed: 33.65 s
----------
%%%mzn-stat: initTime=0.021583049
%%%mzn-stat: objective=315
%%%mzn-stat: nodes=139485
%%%mzn-stat: restarts=48
%%%mzn-stat: peakDepth=781
%%%mzn-stat: solveTime=32.432743362
%%%mzn-stat: variables=1560
%%%mzn-stat: propagators=2408
%%%mzn-stat: failures=86613
%%%mzn-stat: propagations=24109203
%%%mzn-stat: nogoods=86613
%%%mzn-stat: AverageConflictSize=26.139667255492824
%%%mzn-stat: NumUnitNogoodsLearned=217
%%%mzn-stat: AverageLearnedNogoodLength=86.94174084721693
%%%mzn-stat: AverageBacktrackAmount=0
%%%mzn-stat: AverageLbd=14.932481267246256
%%%mzn-stat-end
maxleg = 315;
succ = array1d(1..50,[4, 34, 42, 37, 21, 46, 35, 20, 48, 1, 8, 22, 49, 26, 47, 31, 27, 9, 50, 15, 10, 23, 6, 7, 28, 43, 36, 16, 18, 40, 44, 17, 3, 45, 2, 29, 39, 41, 38, 5, 25, 32, 12, 13, 14, 30, 19, 24, 11, 33]);
% time elapsed: 34.61 s
----------
%%%mzn-stat: initTime=0.021583049
%%%mzn-stat: objective=314
%%%mzn-stat: nodes=140290
%%%mzn-stat: restarts=49
%%%mzn-stat: peakDepth=781
%%%mzn-stat: solveTime=32.469324837
%%%mzn-stat: variables=1560
%%%mzn-stat: propagators=2408
%%%mzn-stat: failures=86732
%%%mzn-stat: propagations=24151000
%%%mzn-stat: nogoods=86732
%%%mzn-stat: AverageConflictSize=26.12114329197989
%%%mzn-stat: NumUnitNogoodsLearned=217
%%%mzn-stat: AverageLearnedNogoodLength=86.88416040215837
%%%mzn-stat: AverageBacktrackAmount=0
%%%mzn-stat: AverageLbd=14.935848360466725
%%%mzn-stat-end
maxleg = 314;
succ = array1d(1..50,[4, 34, 42, 37, 21, 46, 35, 20, 48, 1, 8, 22, 49, 26, 47, 31, 27, 9, 50, 15, 10, 23, 6, 7, 28, 43, 36, 16, 18, 40, 44, 17, 3, 45, 2, 29, 39, 41, 38, 5, 25, 32, 12, 13, 14, 30, 19, 24, 11, 33]);
% time elapsed: 34.65 s
----------
%%%mzn-stat: initTime=0.021583049
%%%mzn-stat: objective=310
%%%mzn-stat: nodes=148497
%%%mzn-stat: restarts=50
%%%mzn-stat: peakDepth=781
%%%mzn-stat: solveTime=34.556681856
%%%mzn-stat: variables=1560
%%%mzn-stat: propagators=2408
%%%mzn-stat: failures=92481
%%%mzn-stat: propagations=25809608
%%%mzn-stat: nogoods=92481
%%%mzn-stat: AverageConflictSize=26.17473859495464
%%%mzn-stat: NumUnitNogoodsLearned=217
%%%mzn-stat: AverageLearnedNogoodLength=86.32834852564311
%%%mzn-stat: AverageBacktrackAmount=0
%%%mzn-stat: AverageLbd=14.800002162606374
%%%mzn-stat-end
maxleg = 310;
succ = array1d(1..50,[4, 34, 42, 37, 21, 46, 35, 20, 48, 1, 8, 22, 49, 26, 47, 31, 27, 9, 50, 15, 10, 23, 6, 7, 28, 43, 36, 16, 18, 40, 44, 17, 3, 45, 2, 29, 39, 41, 38, 5, 25, 32, 12, 13, 14, 30, 19, 24, 11, 33]);
% time elapsed: 36.74 s
----------
%%%mzn-stat: initTime=0.021583049
%%%mzn-stat: objective=307
%%%mzn-stat: nodes=149504
%%%mzn-stat: restarts=51
%%%mzn-stat: peakDepth=781
%%%mzn-stat: solveTime=34.669416179
%%%mzn-stat: variables=1560
%%%mzn-stat: propagators=2408
%%%mzn-stat: failures=92712
%%%mzn-stat: propagations=25875290
%%%mzn-stat: nogoods=92712
%%%mzn-stat: AverageConflictSize=26.154888256104925
%%%mzn-stat: NumUnitNogoodsLearned=217
%%%mzn-stat: AverageLearnedNogoodLength=86.33661230477176
%%%mzn-stat: AverageBacktrackAmount=0
%%%mzn-stat: AverageLbd=14.802150746397446
%%%mzn-stat-end
maxleg = 307;
succ = array1d(1..50,[4, 34, 42, 37, 21, 46, 35, 20, 48, 1, 8, 22, 49, 26, 47, 31, 27, 9, 50, 15, 10, 23, 6, 7, 28, 43, 36, 16, 18, 40, 44, 17, 3, 45, 2, 29, 39, 41, 38, 5, 25, 32, 12, 13, 14, 30, 19, 24, 11, 33]);
% time elapsed: 36.86 s
----------
%%%mzn-stat: initTime=0.021583049
%%%mzn-stat: objective=306
%%%mzn-stat: nodes=150309
%%%mzn-stat: restarts=52
%%%mzn-stat: peakDepth=781
%%%mzn-stat: solveTime=34.709385821
%%%mzn-stat: variables=1560
%%%mzn-stat: propagators=2408
%%%mzn-stat: failures=92770
%%%mzn-stat: propagations=25897247
%%%mzn-stat: nogoods=92770
%%%mzn-stat: AverageConflictSize=26.156472997736337
%%%mzn-stat: NumUnitNogoodsLearned=217
%%%mzn-stat: AverageLearnedNogoodLength=86.33117387086342
%%%mzn-stat: AverageBacktrackAmount=0
%%%mzn-stat: AverageLbd=14.803912902878086
%%%mzn-stat-end
maxleg = 306;
succ = array1d(1..50,[4, 34, 42, 37, 21, 46, 35, 20, 48, 1, 8, 22, 49, 26, 47, 31, 27, 9, 50, 15, 10, 23, 6, 7, 28, 43, 36, 16, 18, 40, 44, 17, 3, 45, 2, 29, 39, 41, 38, 5, 25, 32, 12, 13, 14, 30, 19, 24, 11, 33]);
% time elapsed: 36.90 s
----------
%%%mzn-stat: initTime=0.021583049
%%%mzn-stat: objective=299
%%%mzn-stat: nodes=163627
%%%mzn-stat: restarts=54
%%%mzn-stat: peakDepth=781
%%%mzn-stat: solveTime=39.035670649
%%%mzn-stat: variables=1560
%%%mzn-stat: propagators=2408
%%%mzn-stat: failures=103181
%%%mzn-stat: propagations=28467077
%%%mzn-stat: nogoods=103181
%%%mzn-stat: AverageConflictSize=26.945416307265873
%%%mzn-stat: NumUnitNogoodsLearned=217
%%%mzn-stat: AverageLearnedNogoodLength=86.82681889107491
%%%mzn-stat: AverageBacktrackAmount=0
%%%mzn-stat: AverageLbd=14.51589924501604
%%%mzn-stat-end
maxleg = 299;
succ = array1d(1..50,[4, 6, 42, 37, 21, 46, 35, 20, 48, 1, 8, 22, 49, 26, 47, 31, 27, 9, 50, 15, 10, 23, 2, 7, 28, 43, 36, 16, 18, 40, 44, 17, 3, 45, 34, 29, 39, 41, 38, 5, 25, 32, 12, 13, 14, 30, 19, 24, 11, 33]);
% time elapsed: 41.23 s
----------
%%%mzn-stat: initTime=0.021583049
%%%mzn-stat: objective=297
%%%mzn-stat: nodes=167689
%%%mzn-stat: restarts=55
%%%mzn-stat: peakDepth=781
%%%mzn-stat: solveTime=39.807268058
%%%mzn-stat: variables=1560
%%%mzn-stat: propagators=2408
%%%mzn-stat: failures=105899
%%%mzn-stat: propagations=29262381
%%%mzn-stat: nogoods=105899
%%%mzn-stat: AverageConflictSize=26.599599618504424
%%%mzn-stat: NumUnitNogoodsLearned=217
%%%mzn-stat: AverageLearnedNogoodLength=86.13037894597683
%%%mzn-stat: AverageBacktrackAmount=0
%%%mzn-stat: AverageLbd=14.490174600326727
%%%mzn-stat-end
maxleg = 297;
succ = array1d(1..50,[4, 6, 42, 37, 21, 46, 35, 20, 48, 1, 8, 22, 49, 45, 47, 31, 27, 9, 50, 15, 10, 2, 12, 23, 28, 34, 36, 16, 18, 40, 44, 17, 3, 14, 5, 29, 39, 41, 38, 43, 25, 32, 26, 13, 7, 30, 19, 24, 11, 33]);
% time elapsed: 42.01 s
----------
%%%mzn-stat: initTime=0.021583049
%%%mzn-stat: objective=290
%%%mzn-stat: nodes=168986
%%%mzn-stat: restarts=57
%%%mzn-stat: peakDepth=781
%%%mzn-stat: solveTime=40.015013861
%%%mzn-stat: variables=1560
%%%mzn-stat: propagators=2408
%%%mzn-stat: failures=106427
%%%mzn-stat: propagations=29411169
%%%mzn-stat: nogoods=106427
%%%mzn-stat: AverageConflictSize=26.57319101355859
%%%mzn-stat: NumUnitNogoodsLearned=217
%%%mzn-stat: AverageLearnedNogoodLength=86.08674490495832
%%%mzn-stat: AverageBacktrackAmount=0
%%%mzn-stat: AverageLbd=14.49038307948171
%%%mzn-stat-end
maxleg = 290;
succ = array1d(1..50,[4, 6, 42, 37, 21, 46, 14, 20, 48, 1, 8, 22, 49, 35, 47, 31, 27, 9, 50, 15, 10, 2, 12, 23, 28, 34, 36, 16, 18, 40, 44, 17, 3, 45, 5, 29, 39, 41, 38, 43, 25, 32, 26, 13, 7, 30, 19, 24, 11, 33]);
% time elapsed: 42.22 s
----------
%%%mzn-stat: initTime=0.021583049
%%%mzn-stat: objective=289
%%%mzn-stat: nodes=170543
%%%mzn-stat: restarts=58
%%%mzn-stat: peakDepth=781
%%%mzn-stat: solveTime=40.276533103
%%%mzn-stat: variables=1560
%%%mzn-stat: propagators=2408
%%%mzn-stat: failures=107173
%%%mzn-stat: propagations=29633190
%%%mzn-stat: nogoods=107173
%%%mzn-stat: AverageConflictSize=26.522071790469614
%%%mzn-stat: NumUnitNogoodsLearned=217
%%%mzn-stat: AverageLearnedNogoodLength=85.99460685060603
%%%mzn-stat: AverageBacktrackAmount=0
%%%mzn-stat: AverageLbd=14.491448405848487
%%%mzn-stat-end
maxleg = 289;
succ = array1d(1..50,[4, 6, 42, 37, 21, 46, 14, 20, 48, 1, 8, 22, 49, 35, 47, 31, 27, 9, 50, 15, 10, 2, 12, 23, 28, 34, 36, 16, 18, 40, 44, 17, 3, 45, 5, 29, 39, 41, 38, 43, 25, 32, 26, 13, 7, 30, 19, 24, 11, 33]);
% time elapsed: 42.49 s
----------
%%%mzn-stat: initTime=0.021583049
%%%mzn-stat: objective=288
%%%mzn-stat: nodes=175468
%%%mzn-stat: restarts=59
%%%mzn-stat: peakDepth=781
%%%mzn-stat: solveTime=41.553347478
%%%mzn-stat: variables=1560
%%%mzn-stat: propagators=2408
%%%mzn-stat: failures=110600
%%%mzn-stat: propagations=30462866
%%%mzn-stat: nogoods=110600
%%%mzn-stat: AverageConflictSize=26.649095840867993
%%%mzn-stat: NumUnitNogoodsLearned=217
%%%mzn-stat: AverageLearnedNogoodLength=86.08447558770344
%%%mzn-stat: AverageBacktrackAmount=0
%%%mzn-stat: AverageLbd=14.423065099457505
%%%mzn-stat-end
maxleg = 288;
succ = array1d(1..50,[4, 6, 42, 37, 21, 46, 14, 20, 48, 1, 32, 22, 49, 35, 47, 31, 27, 9, 50, 15, 10, 2, 12, 23, 28, 34, 36, 16, 18, 40, 44, 8, 3, 45, 5, 29, 39, 41, 38, 43, 25, 17, 26, 13, 7, 30, 19, 24, 11, 33]);
% time elapsed: 43.77 s
----------
%%%mzn-stat: initTime=0.021583049
%%%mzn-stat: objective=283
%%%mzn-stat: nodes=177458
%%%mzn-stat: restarts=62
%%%mzn-stat: peakDepth=781
%%%mzn-stat: solveTime=41.893800761
%%%mzn-stat: variables=1560
%%%mzn-stat: propagators=2408
%%%mzn-stat: failures=111410
%%%mzn-stat: propagations=30661268
%%%mzn-stat: nogoods=111410
%%%mzn-stat: AverageConflictSize=26.657992998833137
%%%mzn-stat: NumUnitNogoodsLearned=217
%%%mzn-stat: AverageLearnedNogoodLength=86.11508841217126
%%%mzn-stat: AverageBacktrackAmount=0
%%%mzn-stat: AverageLbd=14.429602369625707
%%%mzn-stat-end
maxleg = 283;
succ = array1d(1..50,[4, 30, 42, 37, 21, 9, 14, 20, 48, 1, 32, 22, 49, 35, 47, 31, 27, 46, 50, 15, 10, 2, 12, 23, 28, 34, 36, 16, 18, 40, 44, 8, 3, 45, 5, 29, 39, 41, 38, 43, 25, 17, 26, 13, 7, 6, 19, 24, 11, 33]);
% time elapsed: 44.12 s
----------
%%%mzn-stat: initTime=0.021583049
%%%mzn-stat: objective=282
%%%mzn-stat: nodes=183787
%%%mzn-stat: restarts=65
%%%mzn-stat: peakDepth=781
%%%mzn-stat: solveTime=43.178299968
%%%mzn-stat: variables=1560
%%%mzn-stat: propagators=2408
%%%mzn-stat: failures=115659
%%%mzn-stat: propagations=31686616
%%%mzn-stat: nogoods=115659
%%%mzn-stat: AverageConflictSize=26.439818777613503
%%%mzn-stat: NumUnitNogoodsLearned=217
%%%mzn-stat: AverageLearnedNogoodLength=85.92653403539715
%%%mzn-stat: AverageBacktrackAmount=0
%%%mzn-stat: AverageLbd=14.406098963331864
%%%mzn-stat-end
maxleg = 282;
succ = array1d(1..50,[21, 30, 42, 37, 1, 9, 14, 20, 48, 4, 32, 22, 49, 35, 47, 31, 27, 46, 50, 15, 10, 2, 12, 23, 28, 34, 36, 16, 18, 40, 44, 8, 3, 45, 5, 29, 39, 41, 38, 43, 25, 17, 26, 13, 7, 6, 19, 24, 11, 33]);
% time elapsed: 45.40 s
----------
%%%mzn-stat: initTime=0.021583049
%%%mzn-stat: objective=281
%%%mzn-stat: nodes=184528
%%%mzn-stat: restarts=66
%%%mzn-stat: peakDepth=781
%%%mzn-stat: solveTime=43.221801166
%%%mzn-stat: variables=1560
%%%mzn-stat: propagators=2408
%%%mzn-stat: failures=115732
%%%mzn-stat: propagations=31708980
%%%mzn-stat: nogoods=115732
%%%mzn-stat: AverageConflictSize=26.437839145612276
%%%mzn-stat: NumUnitNogoodsLearned=217
%%%mzn-stat: AverageLearnedNogoodLength=85.9295268378668
%%%mzn-stat: AverageBacktrackAmount=0
%%%mzn-stat: AverageLbd=14.407726471503128
%%%mzn-stat-end
maxleg = 281;
succ = array1d(1..50,[21, 30, 42, 37, 1, 9, 14, 20, 48, 4, 32, 22, 49, 35, 47, 31, 27, 46, 50, 15, 10, 2, 12, 23, 28, 34, 36, 16, 18, 40, 44, 8, 3, 45, 5, 29, 39, 41, 38, 43, 25, 17, 26, 13, 7, 6, 19, 24, 11, 33]);
% time elapsed: 45.45 s
----------
%%%mzn-stat: initTime=0.021583049
%%%mzn-stat: objective=272
%%%mzn-stat: nodes=191718
%%%mzn-stat: restarts=67
%%%mzn-stat: peakDepth=781
%%%mzn-stat: solveTime=45.11561104
%%%mzn-stat: variables=1560
%%%mzn-stat: propagators=2408
%%%mzn-stat: failures=121121
%%%mzn-stat: propagations=33118593
%%%mzn-stat: nogoods=121121
%%%mzn-stat: AverageConflictSize=26.512206801462998
%%%mzn-stat: NumUnitNogoodsLearned=217
%%%mzn-stat: AverageLearnedNogoodLength=85.81696815581113
%%%mzn-stat: AverageBacktrackAmount=0
%%%mzn-stat: AverageLbd=14.322858959222595
%%%mzn-stat-end
maxleg = 272;
succ = array1d(1..50,[21, 30, 42, 37, 1, 9, 24, 18, 48, 4, 33, 22, 20, 7, 47, 50, 27, 32, 49, 15, 10, 2, 12, 35, 28, 34, 36, 8, 46, 40, 44, 16, 3, 45, 5, 29, 39, 41, 38, 43, 25, 17, 26, 13, 14, 6, 19, 23, 11, 31]);
% time elapsed: 47.35 s
----------
=====ERROR=====
% time elapsed: 1390.95 s
